sat
(:binary-propagations  656
 :decisions            728
 :del-clause           199
 :final-checks         4
 :max-generation       1
 :max-memory           25.01
 :memory               21.49
 :mk-bool-var          1235
 :mk-clause            338
 :mk-clause-binary     835
 :num-allocs           23931887
 :num-checks           1
 :propagations         773
 :quant-instantiations 200
 :restarts             3
 :rlimit-count         336760
 :time                 0.08)
